WARNING: for repeatability, setting FPU to use double precision
============================[ Problem Statistics ]=============================
|                                                                             |
|  Number of variables:        212930                                         |
|  Number of clauses:          486879                                         |
|  Parse time:                   0.19 s                                       |
|                                                                             |
============================[ Search Statistics ]==============================
| Conflicts |          ORIGINAL         |          LEARNT          | Progress |
|           |    Vars  Clauses Literals |    Limit  Clauses Lit/Cl |          |
===============================================================================
|       100 |  116466   465620  1047106 |   170727      100     21 | 45.303 % |
|       250 |  116466   465620  1047106 |   187800      250     25 | 45.303 % |
===============================================================================
restarts              : 3
conflicts             : 375            (997 /sec)
decisions             : 5853           (0.00 % random) (15566 /sec)
propagations          : 1143294        (3040490 /sec)
conflict literals     : 14511          (5.37 % deleted)
Memory used           : 56.00 MB
CPU time              : 0.376023 s

SATISFIABLE
